NAME: tsp_30
TYPE: TSP
DIMENSION: 30
EDGE_WEIGHT_TYPE: EUC_2D
NODE_COORD_SECTION
1 77 35
2 88 340
3 32 389
4 43 133
5 1 55
6 96 58
7 79 166
8 39 40
9 28 327
10 97 227
11 59 214
12 65 256
13 17 187
14 80 142
15 78 151
16 21 41
17 30 396
18 40 278
19 13 228
20 20 109
21 71 220
22 85 28
23 44 176
24 9 137
25 19 83
26 52 397
27 81 3
28 99 366
29 66 268
30 18 72
EOF
